sat
(= |goto_symex::&92;guard#1| true)
(= |goto_symex::&92;guard#2| false)
(= |goto_symex::&92;guard#3| false)
(= |goto_symex::&92;guard#4| false)
(= |goto_symex::&92;guard#5| true)
(= |goto_symex::&92;guard#6| false)
(= |goto_symex::&92;guard#7| false)
(= |goto_symex::&92;guard#8| false)
(= |goto_symex::&92;guard#9| true)
(= |goto_symex::&92;guard#10| false)
(= |goto_symex::&92;guard#11| false)
(= |goto_symex::&92;guard#12| true)
(= |goto_symex::&92;guard#13| false)
(= |goto_symex::&92;guard#14| false)
(= |goto_symex::&92;guard#15| false)
(= |goto_symex::&92;guard#16| true)
(= |goto_symex::&92;guard#17| false)
(= |goto_symex::&92;guard#18| false)
(= |goto_symex::&92;guard#19| true)
(= |goto_symex::&92;guard#20| true)
(= |memory_model::choice_rf_0_153_0_8_T_0| true)
(= |memory_model::choice_rf_0_153_1_18_T_1| false)
(= |memory_model::choice_rf_0_153_2_17_T_2| false)
(= |memory_model::choice_rf_0_157_0_8_T_3| false)
(= |memory_model::choice_rf_0_157_1_18_T_4| false)
(= |memory_model::choice_rf_0_157_2_17_T_5| false)
(= |memory_model::choice_rf_1_17_0_8_T_6| true)
(= |memory_model::choice_rf_1_17_2_17_T_7| false)
(= |memory_model::choice_rf_2_16_0_8_T_8| true)
(= |memory_model::choice_rf_2_16_1_18_T_9| false)
(= |memory_model::choice_rf_0_146_0_6_T_10| false)
(= |memory_model::choice_rf_0_146_0_143_T_11| true)
(= |memory_model::choice_rf_0_152_0_6_T_12| false)
(= |memory_model::choice_rf_0_152_0_143_T_13| false)
(= |memory_model::choice_rf_0_152_0_147_T_14| true)
(= |memory_model::choice_rf_0_156_0_6_T_15| false)
(= |memory_model::choice_rf_0_156_0_143_T_16| false)
(= |memory_model::choice_rf_0_156_0_147_T_17| true)
(= |memory_model::choice_rf_1_10_0_15_F_18| false)
(= |memory_model::choice_rf_1_10_0_139_F_19| true)
(= |memory_model::choice_rf_1_10_0_140_F_20| false)
(= |memory_model::choice_rf_1_12_0_15_F_21| false)
(= |memory_model::choice_rf_1_12_0_139_F_22| true)
(= |memory_model::choice_rf_1_12_0_140_F_23| false)
(= |memory_model::choice_rf_1_13_0_15_F_24| false)
(= |memory_model::choice_rf_1_13_0_139_F_25| true)
(= |memory_model::choice_rf_1_13_0_140_F_26| false)
(= |memory_model::choice_rf_2_9_0_15_F_27| false)
(= |memory_model::choice_rf_2_9_0_139_F_28| true)
(= |memory_model::choice_rf_2_9_0_140_F_29| false)
(= |memory_model::choice_rf_2_11_0_15_F_30| false)
(= |memory_model::choice_rf_2_11_0_139_F_31| true)
(= |memory_model::choice_rf_2_11_0_140_F_32| false)
(= |memory_model::choice_rf_2_12_0_15_F_33| false)
(= |memory_model::choice_rf_2_12_0_139_F_34| true)
(= |memory_model::choice_rf_2_12_0_140_F_35| false)
(= |memory_model::choice_rf_1_1_0_19_F_36| false)
(= |memory_model::choice_rf_1_1_0_46_F_37| true)
(= |memory_model::choice_rf_1_5_0_19_F_38| false)
(= |memory_model::choice_rf_1_5_0_46_F_39| true)
(= |memory_model::choice_rf_2_0_0_20_F_40| false)
(= |memory_model::choice_rf_2_0_0_58_F_41| true)
(= |memory_model::choice_rf_2_4_0_20_F_42| false)
(= |memory_model::choice_rf_2_4_0_58_F_43| true)
(= |memory_model::choice_rf_1_2_0_17_F_44| false)
(= |memory_model::choice_rf_1_2_0_106_F_45| true)
(= |memory_model::choice_rf_1_6_0_17_F_46| false)
(= |memory_model::choice_rf_1_6_0_106_F_47| true)
(= |memory_model::choice_rf_2_1_0_17_F_48| false)
(= |memory_model::choice_rf_2_1_0_106_F_49| true)
(= |memory_model::choice_rf_2_5_0_17_F_50| false)
(= |memory_model::choice_rf_2_5_0_106_F_51| true)
(= |memory_model::choice_rf_1_4_0_30_F_52| false)
(= |memory_model::choice_rf_1_4_0_136_F_53| true)
(= |memory_model::choice_rf_1_8_0_30_F_54| false)
(= |memory_model::choice_rf_1_8_0_136_F_55| true)
(= |memory_model::choice_rf_2_3_0_30_F_56| false)
(= |memory_model::choice_rf_2_3_0_136_F_57| true)
(= |memory_model::choice_rf_2_7_0_30_F_58| false)
(= |memory_model::choice_rf_2_7_0_136_F_59| true)
(= |memory_model::choice_rf_1_3_0_29_F_60| false)
(= |memory_model::choice_rf_1_3_0_137_F_61| true)
(= |memory_model::choice_rf_1_7_0_29_F_62| false)
(= |memory_model::choice_rf_1_7_0_137_F_63| true)
(= |memory_model::choice_rf_2_2_0_29_F_64| false)
(= |memory_model::choice_rf_2_2_0_137_F_65| true)
(= |memory_model::choice_rf_2_6_0_29_F_66| false)
(= |memory_model::choice_rf_2_6_0_137_F_67| true)
(= |memory_model::choice_rf_0_150_0_141_F_68| false)
(= |memory_model::choice_rf_0_150_0_144_F_69| true)
(= |memory_model::choice_rf_0_151_0_141_F_70| false)
(= |memory_model::choice_rf_0_151_0_144_F_71| true)
(= |memory_model::choice_rf_0_154_0_142_F_72| false)
(= |memory_model::choice_rf_0_154_0_148_F_73| true)
(= |memory_model::choice_rf_0_155_0_142_F_74| true)
(= |memory_model::choice_rf_0_155_0_148_F_75| false)
(= |memory_model::choice_rf_1_9_1_0_F_76| true)
(= |memory_model::choice_rf_1_9_2_13_F_77| false)
(= |memory_model::choice_rf_1_11_1_0_F_78| false)
(= |memory_model::choice_rf_1_11_2_13_F_79| true)
(= |memory_model::choice_rf_1_15_1_0_F_80| false)
(= |memory_model::choice_rf_1_15_1_14_F_81| true)
(= |memory_model::choice_rf_1_15_2_13_F_82| false)
(= |memory_model::choice_rf_1_16_1_0_F_83| false)
(= |memory_model::choice_rf_1_16_1_14_F_84| true)
(= |memory_model::choice_rf_1_16_2_13_F_85| false)
(= |memory_model::choice_rf_2_8_1_0_F_86| true)
(= |memory_model::choice_rf_2_8_1_14_F_87| false)
(= |memory_model::choice_rf_2_10_1_0_F_88| true)
(= |memory_model::choice_rf_2_10_1_14_F_89| false)
(= |memory_model::choice_rf_2_14_1_0_F_90| false)
(= |memory_model::choice_rf_2_14_1_14_F_91| false)
(= |memory_model::choice_rf_2_14_2_13_F_92| true)
(= |memory_model::choice_rf_2_15_1_0_F_93| false)
(= |memory_model::choice_rf_2_15_1_14_F_94| true)
(= |memory_model::choice_rf_2_15_2_13_F_95| false)
(= |memory_model::choice_ws-ext_0_8_1_18_T_96| true)
(= |memory_model::choice_ws-ext_0_8_2_17_T_97| true)
(= |memory_model::choice_ws-ext_1_18_2_17_T_98| true)
(= |memory_model::choice_ws-ext_1_0_2_13_F_99| true)
(= |memory_model::choice_ws-ext_1_14_2_13_F_100| false)
(= |pthread_join::thread!0@1#1| #b00000000000000000000000000000001)
(= |pthread_join::thread!0@2#1| #b10000000000000000000000000000010)
(= |symex_dynamic::dynamic_object17| #b0000000000000000000000000000000001001101111010011110111001001011)
(= |nondet_symex::nondet34| #b00000000000000000000000000000001)
(= |nondet_symex::nondet36| #b00000000000000000000000000000000)
(= |nondet_symex::nondet37| #b01001101111100011111000000000000)
(= |__CPROVER_next_thread_id#3| #b00000000000000000000000000000001)
(= |main::1::pthread_t_write_nvram!0@1#4| #b00000000000000000000000000000001)
(= |__CPROVER_next_thread_id#6| #b00000000000000000000000000000010)
(= |main::1::pthread_t_read_nvram!0@1#4| #b10000000000000000000000000000010)
(= |__CPROVER_next_thread_id#7| #b00000000000000000000000000000010)
(= |nondet_symex::nondet38| #b00000000000000000000000000000000)
(= |pthread_create::1::this_thread_id!1@0#0| #b00000000000000000000000000000000)
(= |whoop_file_0#4| #b00001011000000000000000000000000)
(= |whoop_buf#4| #b00010101000000000000000000000000)
(= |whoop_int#4| #b00000000000000000000000000000001)
(= |whoop_loff_t#4| #b00011010000000000000000000000000)
(= |nondet_symex::nondet40| #b10000000000000000000000000000000)
(= |symex_dynamic::dynamic_object17#1| #b0000000000000000000000000000000001001101111010011110111001001011)
(= |nvram_len#6| #b01001101111100011111000000000000)
(= |symex_dynamic::dynamic_object17#2| #b0000000000000000000000000000000001001101111010011110111001001100)
(= |nvram_len#7| #b01001101111100011111000000000000)
(= |nondet_symex::nondet41| #b00000000000000000000000000000000)
(= |nvram_len#8| #b01001101111100011111000000000000)
(= |nondet_symex::nondet42| #b10000000000000000000000000000000)
(= |symex_dynamic::dynamic_object17#5| #b0000000000000000000000000000000001001101111010011110111001001101)
(= |pthread_create::1::this_thread_id!2@0#0| #b10000000000000000000000000000000)
(= |whoop_file_1#4| #b00001101000000000000000000000000)
(= |whoop_buf#6| #b00010101000000000000000000000000)
(= |whoop_int#6| #b00000000000000000000000000000001)
(= |whoop_loff_t#6| #b00011010000000000000000000000000)
(= |nondet_symex::nondet43| #b10000000000000000000000000000000)
(= |symex_dynamic::dynamic_object17#6| #b0000000000000000000000000000000001001101111010011110111001001011)
(= |nvram_len#9| #b01001101111100011111000000000000)
(= |symex_dynamic::dynamic_object17#7| #b0000000000000000000000000000000001001101111010011110111001001011)
(= |nvram_len#10| #b01001101111100011111000000000000)
(= |nondet_symex::nondet45| #b00000000000000000000000000000000)
(= |nvram_len#11| #b01001101111100011111000000000000)
(= |nondet_symex::nondet47| #b10000000000000000000000000000000)
(= |symex_dynamic::dynamic_object17#10| #b0000000000000000000000000000000001001101111010011110111001001101)
(= |main::1::pthread_t_write_nvram!0@1#1| #b10000000000000000000000000000001)
(= |main::1::pthread_t_read_nvram!0@1#1| #b10000000000000000000000000000010)
(= |symex::io::0| #b00000000000000000000000000000000)
(= |__CPROVER_threads_exited#5$wclk$8| #b11111101)
(= |__CPROVER_threads_exited#2$rclk$8| #b11011001)
(= |__CPROVER_threads_exited#7$wclk$8| #b11111111)
(= |__CPROVER_threads_exited#3$rclk$8| #b11111100)
(= |__CPROVER_threads_exited#1$wclk$8| #b00001000)
(= |__CPROVER_threads_exited#4$rclk$8| #b10111111)
(= |__CPROVER_threads_exited#6$rclk$8| #b11111110)
(= |nvram_len#1$wclk$8| #b00001111)
(= |nvram_len#6$rclk$8| #b10111000)
(= |nvram_len#2$wclk$8| #b10010011)
(= |nvram_len#3$wclk$8| #b10010100)
(= |nvram_len#7$rclk$8| #b10111010)
(= |nvram_len#8$rclk$8| #b10111011)
(= |nvram_len#9$rclk$8| #b10100111)
(= |nvram_len#10$rclk$8| #b10101001)
(= |nvram_len#11$rclk$8| #b10101010)
(= |whoop_file_0#3| #b00001011000000000000000000000000)
(= |whoop_file_0#1$wclk$8| #b00010011)
(= |whoop_file_0#3$rclk$8| #b10011011)
(= |whoop_file_0#2$wclk$8| #b00101110)
(= |whoop_file_0#4$rclk$8| #b10011111)
(= |whoop_file_1#3| #b00001101000000000000000000000000)
(= |whoop_file_1#1$wclk$8| #b00010100)
(= |whoop_file_1#3$rclk$8| #b10011101)
(= |whoop_file_1#2$wclk$8| #b00111010)
(= |whoop_file_1#4$rclk$8| #b10100010)
(= |whoop_buf#3| #b00010101000000000000000000000000)
(= |whoop_buf#1$wclk$8| #b00010001)
(= |whoop_buf#3$rclk$8| #b10011100)
(= |whoop_buf#2$wclk$8| #b01101010)
(= |whoop_buf#4$rclk$8| #b10100010)
(= |whoop_buf#5| #b00010101000000000000000000000000)
(= |whoop_buf#5$rclk$8| #b10011110)
(= |whoop_buf#6$rclk$8| #b10100011)
(= |whoop_loff_t#3| #b00011010000000000000000000000000)
(= |whoop_loff_t#1$wclk$8| #b00011110)
(= |whoop_loff_t#3$rclk$8| #b10011110)
(= |whoop_loff_t#2$wclk$8| #b10001111)
(= |whoop_loff_t#4$rclk$8| #b10100100)
(= |whoop_loff_t#5| #b00011010000000000000000000000000)
(= |whoop_loff_t#5$rclk$8| #b10100001)
(= |whoop_loff_t#6$rclk$8| #b10100101)
(= |whoop_int#3| #b00000000000000000000000000000001)
(= |whoop_int#1$wclk$8| #b00011101)
(= |whoop_int#3$rclk$8| #b10011101)
(= |whoop_int#2$wclk$8| #b10010001)
(= |whoop_int#4$rclk$8| #b10100011)
(= |whoop_int#5| #b00000000000000000000000000000001)
(= |whoop_int#5$rclk$8| #b10100000)
(= |whoop_int#6$rclk$8| #b10100100)
(= |main::1::pthread_t_write_nvram!0@1#3| #b00000000000000000000000000000001)
(= |main::1::pthread_t_read_nvram!0@1#3| #b00000000000000000000000000000010)
(= |symex_dynamic::dynamic_object17#8$wclk$8| #b10101011)
(= |symex_dynamic::dynamic_object17#1$rclk$8| #b10101001)
(= |symex_dynamic::dynamic_object17#2$rclk$8| #b10111001)
(= |symex_dynamic::dynamic_object17#4| #b0000000000000000000000000000000001001101111010011110111001001101)
(= |symex_dynamic::dynamic_object17#4$rclk$8| #b10111101)
(= |symex_dynamic::dynamic_object17#5$rclk$8| #b10111110)
(= |symex_dynamic::dynamic_object17$wclk$8| #b10011010)
(= |symex_dynamic::dynamic_object17#6$rclk$8| #b10100110)
(= |symex_dynamic::dynamic_object17#3$wclk$8| #b10111100)
(= |symex_dynamic::dynamic_object17#7$rclk$8| #b10101000)
(= |symex_dynamic::dynamic_object17#9| #b0000000000000000000000000000000001001101111010011110111001001100)
(= |symex_dynamic::dynamic_object17#9$rclk$8| #b10101100)
(= |symex_dynamic::dynamic_object17#10$rclk$8| #b11101101)
(= t1$145$spwnclk$8 #b10011001)
(= t1$149$spwnclk$8 #b10011100)
(= |__CPROVER_dead_object#1$wclk$8| #b00000000)
(= |__CPROVER_deallocated#1$wclk$8| #b00000001)
(= |__CPROVER_malloc_is_new_array#1$wclk$8| #b00000010)
(= |__CPROVER_malloc_object#1$wclk$8| #b00000011)
(= |__CPROVER_malloc_size#1$wclk$8| #b00000100)
(= |__CPROVER_memory_leak#1$wclk$8| #b00000101)
(= |__CPROVER_next_thread_id#1$wclk$8| #b00000110)
(= |__CPROVER_pipe_count#1$wclk$8| #b00000111)
(= |_whoop_exit#1$wclk$8| #b00001001)
(= |_whoop_init#1$wclk$8| #b00001010)
(= |default_alloc_size#1$wclk$8| #b00001011)
(= |jiffies#1$wclk$8| #b00001100)
(= |nvram_dev#1$wclk$8| #b00001101)
(= |nvram_fops#1$wclk$8| #b00001110)
(= |nvram_mutex#1$wclk$8| #b00010000)
(= |whoop_cx_dev#1$wclk$8| #b00010010)
(= |whoop_file_2#1$wclk$8| #b00010101)
(= |whoop_file_3#1$wclk$8| #b00010110)
(= |whoop_file_4#1$wclk$8| #b00010111)
(= |whoop_inode_0#1$wclk$8| #b00011000)
(= |whoop_inode_1#1$wclk$8| #b00011001)
(= |whoop_inode_2#1$wclk$8| #b00011010)
(= |whoop_inode_3#1$wclk$8| #b00011011)
(= |whoop_inode_4#1$wclk$8| #b00011100)
(= |whoop_pci_dev#1$wclk$8| #b00011111)
(= |whoop_platform_device#1$wclk$8| #b00100000)
(= |whoop_poll_table#1$wclk$8| #b00100001)
(= |whoop_vm_area_struct#1$wclk$8| #b00100010)
(= |__CPROVER_deallocated#2$wclk$8| #b00100011)
(= |__CPROVER_malloc_object#2$wclk$8| #b00100100)
(= |__CPROVER_malloc_size#2$wclk$8| #b00100101)
(= |__CPROVER_malloc_is_new_array#2$wclk$8| #b00100110)
(= |__CPROVER_memory_leak#2$wclk$8| #b00100111)
(= |whoop_inode_0#2$wclk$8| #b00101000)
(= |__CPROVER_deallocated#3$wclk$8| #b00101001)
(= |__CPROVER_malloc_object#3$wclk$8| #b00101010)
(= |__CPROVER_malloc_size#3$wclk$8| #b00101011)
(= |__CPROVER_malloc_is_new_array#3$wclk$8| #b00101100)
(= |__CPROVER_memory_leak#3$wclk$8| #b00101101)
(= |__CPROVER_deallocated#4$wclk$8| #b00101111)
(= |__CPROVER_malloc_object#4$wclk$8| #b00110000)
(= |__CPROVER_malloc_size#4$wclk$8| #b00110001)
(= |__CPROVER_malloc_is_new_array#4$wclk$8| #b00110010)
(= |__CPROVER_memory_leak#4$wclk$8| #b00110011)
(= |whoop_inode_1#2$wclk$8| #b00110100)
(= |__CPROVER_deallocated#5$wclk$8| #b00110101)
(= |__CPROVER_malloc_object#5$wclk$8| #b00110110)
(= |__CPROVER_malloc_size#5$wclk$8| #b00110111)
(= |__CPROVER_malloc_is_new_array#5$wclk$8| #b00111000)
(= |__CPROVER_memory_leak#5$wclk$8| #b00111001)
(= |__CPROVER_deallocated#6$wclk$8| #b00111011)
(= |__CPROVER_malloc_object#6$wclk$8| #b00111100)
(= |__CPROVER_malloc_size#6$wclk$8| #b00111101)
(= |__CPROVER_malloc_is_new_array#6$wclk$8| #b00111110)
(= |__CPROVER_memory_leak#6$wclk$8| #b00111111)
(= |whoop_inode_2#2$wclk$8| #b01000000)
(= |__CPROVER_deallocated#7$wclk$8| #b01000001)
(= |__CPROVER_malloc_object#7$wclk$8| #b01000010)
(= |__CPROVER_malloc_size#7$wclk$8| #b01000011)
(= |__CPROVER_malloc_is_new_array#7$wclk$8| #b01000100)
(= |__CPROVER_memory_leak#7$wclk$8| #b01000101)
(= |whoop_file_2#2$wclk$8| #b01000110)
(= |__CPROVER_deallocated#8$wclk$8| #b01000111)
(= |__CPROVER_malloc_object#8$wclk$8| #b01001000)
(= |__CPROVER_malloc_size#8$wclk$8| #b01001001)
(= |__CPROVER_malloc_is_new_array#8$wclk$8| #b01001010)
(= |__CPROVER_memory_leak#8$wclk$8| #b01001011)
(= |whoop_inode_3#2$wclk$8| #b01001100)
(= |__CPROVER_deallocated#9$wclk$8| #b01001101)
(= |__CPROVER_malloc_object#9$wclk$8| #b01001110)
(= |__CPROVER_malloc_size#9$wclk$8| #b01001111)
(= |__CPROVER_malloc_is_new_array#9$wclk$8| #b01010000)
(= |__CPROVER_memory_leak#9$wclk$8| #b01010001)
(= |whoop_file_3#2$wclk$8| #b01010010)
(= |__CPROVER_deallocated#10$wclk$8| #b01010011)
(= |__CPROVER_malloc_object#10$wclk$8| #b01010100)
(= |__CPROVER_malloc_size#10$wclk$8| #b01010101)
(= |__CPROVER_malloc_is_new_array#10$wclk$8| #b01010110)
(= |__CPROVER_memory_leak#10$wclk$8| #b01010111)
(= |whoop_inode_4#2$wclk$8| #b01011000)
(= |__CPROVER_deallocated#11$wclk$8| #b01011001)
(= |__CPROVER_malloc_object#11$wclk$8| #b01011010)
(= |__CPROVER_malloc_size#11$wclk$8| #b01011011)
(= |__CPROVER_malloc_is_new_array#11$wclk$8| #b01011100)
(= |__CPROVER_memory_leak#11$wclk$8| #b01011101)
(= |whoop_file_4#2$wclk$8| #b01011110)
(= |__CPROVER_deallocated#12$wclk$8| #b01011111)
(= |__CPROVER_malloc_object#12$wclk$8| #b01100000)
(= |__CPROVER_malloc_size#12$wclk$8| #b01100001)
(= |__CPROVER_malloc_is_new_array#12$wclk$8| #b01100010)
(= |__CPROVER_memory_leak#12$wclk$8| #b01100011)
(= |whoop_pci_dev#2$wclk$8| #b01100100)
(= |__CPROVER_deallocated#13$wclk$8| #b01100101)
(= |__CPROVER_malloc_object#13$wclk$8| #b01100110)
(= |__CPROVER_malloc_size#13$wclk$8| #b01100111)
(= |__CPROVER_malloc_is_new_array#13$wclk$8| #b01101000)
(= |__CPROVER_memory_leak#13$wclk$8| #b01101001)
(= |__CPROVER_deallocated#14$wclk$8| #b01101011)
(= |__CPROVER_malloc_object#14$wclk$8| #b01101100)
(= |__CPROVER_malloc_size#14$wclk$8| #b01101101)
(= |__CPROVER_malloc_is_new_array#14$wclk$8| #b01101110)
(= |__CPROVER_memory_leak#14$wclk$8| #b01101111)
(= |whoop_platform_device#2$wclk$8| #b01110000)
(= |__CPROVER_deallocated#15$wclk$8| #b01110001)
(= |__CPROVER_malloc_object#15$wclk$8| #b01110010)
(= |__CPROVER_malloc_size#15$wclk$8| #b01110011)
(= |__CPROVER_malloc_is_new_array#15$wclk$8| #b01110100)
(= |__CPROVER_memory_leak#15$wclk$8| #b01110101)
(= |whoop_vm_area_struct#2$wclk$8| #b01110110)
(= |__CPROVER_deallocated#16$wclk$8| #b01110111)
(= |__CPROVER_malloc_object#16$wclk$8| #b01111000)
(= |__CPROVER_malloc_size#16$wclk$8| #b01111100)
(= |__CPROVER_malloc_is_new_array#16$wclk$8| #b01111101)
(= |__CPROVER_memory_leak#16$wclk$8| #b01111110)
(= |whoop_cx_dev#2$wclk$8| #b01111111)
(= |__CPROVER_deallocated#17$wclk$8| #b10000011)
(= |__CPROVER_malloc_object#17$wclk$8| #b10000101)
(= |__CPROVER_malloc_size#17$wclk$8| #b10000110)
(= |__CPROVER_malloc_is_new_array#17$wclk$8| #b10000111)
(= |__CPROVER_memory_leak#17$wclk$8| #b10001000)
(= |whoop_poll_table#2$wclk$8| #b10001001)
(= |__CPROVER_deallocated#18$wclk$8| #b10001010)
(= |__CPROVER_malloc_object#18$wclk$8| #b10001011)
(= |__CPROVER_malloc_size#18$wclk$8| #b10001100)
(= |__CPROVER_malloc_is_new_array#18$wclk$8| #b10001101)
(= |__CPROVER_memory_leak#18$wclk$8| #b10001110)
(= |printk::va_arg0#1$wclk$8| #b10010010)
(= |main::1::pthread_t_write_nvram!0@1#1$wclk$8| #b10010101)
(= |main::1::pthread_t_read_nvram!0@1#1$wclk$8| #b10010110)
(= |__CPROVER_next_thread_id#2$wclk$8| #b10010111)
(= |main::1::pthread_t_write_nvram!0@1#2$wclk$8| #b10011000)
(= |__CPROVER_next_thread_id#3$rclk$8| #b10011010)
(= |__CPROVER_next_thread_id#5$wclk$8| #b10011010)
(= |main::1::pthread_t_read_nvram!0@1#2$wclk$8| #b10011011)
(= |main::1::pthread_t_write_nvram!0@1#3$rclk$8| #b10111000)
(= |main::1::pthread_t_write_nvram!0@1#4$rclk$8| #b10111100)
(= |__CPROVER_next_thread_id#6$rclk$8| #b11011000)
(= |main::1::pthread_t_read_nvram!0@1#3$rclk$8| #b11011010)
(= |main::1::pthread_t_read_nvram!0@1#4$rclk$8| #b11011011)
(= |__CPROVER_next_thread_id#7$rclk$8| #b11111000)
(= |__CPROVER_threads_exited#2| @fun_126)
(= |__CPROVER_threads_exited#3| @fun_129)
(= array_of.0 @fun_126)
(= string.1 @fun_75)
(= string.2 @fun_118)
(= string.3 @fun_123)
(= |__CPROVER_threads_exited#4| @fun_126)
(= |__CPROVER_threads_exited#6| @fun_126)
(function @fun_126
 (type (Array (_ BitVec 32) (_ BitVec 1)))
 (= (@fun_126 #b00000000000000000000000000000000) #b1)
 (default #b0))
(function @fun_129
 (type (Array (_ BitVec 32) (_ BitVec 1)))
 (default #b1))
(function @fun_75
 (type (Array (_ BitVec 32) (_ BitVec 8)))
 (= (@fun_75 #b00000000000000000000000000000000) #b01101110)
 (= (@fun_75 #b00000000000000000000000000000001) #b01110110)
 (= (@fun_75 #b00000000000000000000000000000011) #b01100001)
 (= (@fun_75 #b00000000000000000000000000000100) #b01101101)
 (= (@fun_75 #b00000000000000000000000000000101) #b00000000)
 (default #b01110010))
(function @fun_118
 (type (Array (_ BitVec 32) (_ BitVec 8)))
 (= (@fun_118 #b00000000000000000000000000000000) #b00000001)
 (= (@fun_118 #b00000000000000000000000000000001) #b00110110)
 (= (@fun_118 #b00000000000000000000000000000010) #b01000111)
 (= (@fun_118 #b00000000000000000000000000000011) #b01100101)
 (= (@fun_118 #b00000000000000000000000000000100) #b01101110)
 (= (@fun_118 #b00000000000000000000000000000101) #b01100101)
 (= (@fun_118 #b00000000000000000000000000000110) #b01110010)
 (= (@fun_118 #b00000000000000000000000000000111) #b01101001)
 (= (@fun_118 #b00000000000000000000000000001000) #b01100011)
 (= (@fun_118 #b00000000000000000000000000001001) #b00100000)
 (= (@fun_118 #b00000000000000000000000000001010) #b01101110)
 (= (@fun_118 #b00000000000000000000000000001011) #b01101111)
 (= (@fun_118 #b00000000000000000000000000001100) #b01101110)
 (= (@fun_118 #b00000000000000000000000000001101) #b00101101)
 (= (@fun_118 #b00000000000000000000000000001111) #b01101111)
 (= (@fun_118 #b00000000000000000000000000010000) #b01101100)
 (= (@fun_118 #b00000000000000000000000000010001) #b01100001)
 (= (@fun_118 #b00000000000000000000000000010010) #b01110100)
 (= (@fun_118 #b00000000000000000000000000010011) #b01101001)
 (= (@fun_118 #b00000000000000000000000000010100) #b01101100)
 (= (@fun_118 #b00000000000000000000000000010101) #b01100101)
 (= (@fun_118 #b00000000000000000000000000010110) #b00100000)
 (= (@fun_118 #b00000000000000000000000000010111) #b01101101)
 (= (@fun_118 #b00000000000000000000000000011000) #b01100101)
 (= (@fun_118 #b00000000000000000000000000011001) #b01101101)
 (= (@fun_118 #b00000000000000000000000000011010) #b01101111)
 (= (@fun_118 #b00000000000000000000000000011011) #b01110010)
 (= (@fun_118 #b00000000000000000000000000011100) #b01111001)
 (= (@fun_118 #b00000000000000000000000000011101) #b00100000)
 (= (@fun_118 #b00000000000000000000000000011110) #b01100100)
 (= (@fun_118 #b00000000000000000000000000011111) #b01110010)
 (= (@fun_118 #b00000000000000000000000000100000) #b01101001)
 (= (@fun_118 #b00000000000000000000000000100010) #b01100101)
 (= (@fun_118 #b00000000000000000000000000100011) #b01110010)
 (= (@fun_118 #b00000000000000000000000000100100) #b00100000)
 (= (@fun_118 #b00000000000000000000000000100110) #b00100101)
 (= (@fun_118 #b00000000000000000000000000100111) #b01110011)
 (= (@fun_118 #b00000000000000000000000000101000) #b00001010)
 (= (@fun_118 #b00000000000000000000000000101001) #b00000000)
 (default #b01110110))
(function @fun_123
 (type (Array (_ BitVec 32) (_ BitVec 8)))
 (= (@fun_123 #b00000000000000000000000000000000) #b00110001)
 (= (@fun_123 #b00000000000000000000000000000001) #b00101110)
 (= (@fun_123 #b00000000000000000000000000000010) #b00110001)
 (= (@fun_123 #b00000000000000000000000000000011) #b00000000)
 (default #b01101110))

real	0m0.081s
user	0m0.081s
sys	0m0.000s
State: AC Run_time: 0.0835866928100586